LengthSchedulingHorizon=726;
nAttributes=2;
SetupCosts=[[0, 0], [2, 0], [0, 2]];
SetupTimes=[[0, 0], [3, 3], [3, 2]];
nMachines=5;
MinCap=[0, 0, 0, 0, 0];
MaxCap=[57, 42, 37, 58, 86];

initState=[2, 2, 2, 1, 2];
nShifts=5;
ShiftStartTimes = [[130, 216, 269, 378, 545], [0, 0, 0, 118, 440], [0, 0, 8, 75, 290], [0, 0, 0, 88, 645], [0, 91, 164, 509, 542]];
ShiftEndTimes = [[199, 265, 355, 531, 714], [0, 0, 0, 404, 681], [0, 0, 74, 251, 714], [0, 0, 0, 555, 718], [0, 161, 491, 536, 694]];
nJobs=50;
EligibleMachines = [{3}, {1, 4, 5}, {2}, {2}, {4}, {1, 3}, {3, 5}, {1, 3, 5}, {3, 5}, {1, 2}, {4}, {1, 4}, {3, 4, 5}, {2, 4, 5}, {3}, {1, 3, 4}, {3}, {4}, {1, 4}, {5}, {2, 3, 5}, {3, 5}, {4}, {1, 3, 5}, {1, 3, 4, 5}, {1, 2}, {1, 2}, {2, 4}, {4}, {1, 3, 4}, {4}, {1, 5}, {3}, {2, 4}, {1, 2, 5}, {1, 4}, {3, 5}, {2}, {3, 4, 5}, {4, 5}, {1}, {1, 4, 5}, {4, 5}, {3, 5}, {3}, {1}, {2}, {1, 4}, {5}, {1, 3}];
EarliestStart=[57, 89, 101, 18, 55, 138, 48, 21, 114, 14, 5, 136, 99, 31, 7, 126, 15, 126, 89, 96, 134, 58, 106, 68, 107, 103, 56, 76, 31, 42, 71, 31, 43, 124, 1, 91, 69, 78, 85, 2, 124, 106, 111, 76, 98, 17, 119, 96, 135, 36];
LatestEnd=[75, 117, 130, 26, 72, 149, 59, 56, 115, 26, 25, 166, 115, 36, 37, 129, 29, 143, 123, 114, 161, 72, 141, 106, 124, 109, 69, 92, 53, 71, 116, 35, 55, 145, 14, 94, 73, 109, 88, 10, 125, 120, 113, 93, 110, 42, 143, 125, 138, 69];
MinTime=[4, 8, 8, 3, 5, 4, 6, 10, 1, 7, 8, 8, 6, 2, 8, 3, 7, 6, 8, 5, 6, 8, 10, 10, 4, 6, 9, 9, 5, 6, 10, 1, 4, 6, 9, 1, 1, 9, 3, 5, 1, 5, 1, 7, 3, 8, 9, 10, 1, 7];
MaxTime=[10, 10, 10, 10, 10, 10, 10, 10, 10, 10, 10, 10, 10, 10, 10, 10, 10, 10, 10, 10, 10, 10, 10, 10, 10, 10, 10, 10, 10, 10, 10, 10, 10, 10, 10, 10, 10, 10, 10, 10, 10, 10, 10, 10, 10, 10, 10, 10, 10, 10];
JobSize=[20, 1, 15, 7, 2, 7, 15, 18, 16, 18, 20, 2, 9, 1, 5, 12, 9, 14, 1, 16, 4, 18, 15, 3, 5, 17, 2, 17, 12, 19, 15, 17, 15, 2, 3, 6, 11, 5, 3, 5, 4, 4, 2, 10, 18, 1, 12, 8, 14, 2];
Attribute=[1, 2, 2, 2, 2, 1, 1, 2, 2, 1, 2, 1, 1, 1, 2, 2, 1, 1, 1, 1, 1, 2, 1, 2, 1, 1, 2, 1, 1, 2, 1, 2, 1, 1, 2, 1, 2, 2, 2, 1, 2, 1, 1, 2, 2, 2, 2, 1, 1, 1];

upper_bound_integer_objective=1500;
mult_factor_total_runtime=2;
mult_factor_finished_toolate=12;
mult_factor_total_setuptimes=0;
mult_factor_total_setupcosts=3;
running_time_bound=291;
min_duration=1;
max_duration=10;
max_setup_time=3;
max_setup_cost=2;
